; benchmark generated from python API
(set-info :status unknown)
(declare-fun x_epoch () Int)
(declare-fun y_epoch () Int)
(declare-fun x_plus_epoch () Int)
(declare-fun x_plus_month () Int)
(declare-fun x_plus_year () Int)
(declare-fun x_plus_day () Int)
(assert
 (>= x_epoch (- 36525)))
(assert
 (<= x_epoch 36523))
(assert
 (>= y_epoch (- 36525)))
(assert
 (<= y_epoch 36523))
(assert
 (= x_epoch 7990))
(assert
 (>= x_plus_epoch (- 36525)))
(assert
 (<= x_plus_epoch 36523))
(assert
 (let (($x689 (= x_plus_month 11)))
 (let (($x619 (= x_plus_month 9)))
 (let (($x1022 (= x_plus_month 6)))
 (let (($x1048 (= x_plus_month 4)))
 (let ((?x591 (ite (or $x1048 $x1022 $x619 $x689) 30 31)))
 (let (($x542 (= (mod x_plus_year 400) 0)))
 (let (($x3621 (= (mod x_plus_year 4) 0)))
 (let (($x665 (or (and $x3621 (and (distinct (mod x_plus_year 100) 0) true)) $x542)))
 (let (($x2777 (= x_plus_month 2)))
 (let (($x534 (>= x_plus_day 1)))
 (let (($x1785 (<= x_plus_month 12)))
 (let (($x1071 (>= x_plus_month 1)))
 (let (($x942 (<= x_plus_year 2100)))
 (let (($x918 (>= x_plus_year 1900)))
 (and $x918 $x942 $x1071 $x1785 $x534 (<= x_plus_day (ite $x2777 (ite $x665 29 28) ?x591))))))))))))))))))
(assert
 (let (($x542 (= (mod x_plus_year 400) 0)))
 (let (($x3621 (= (mod x_plus_year 4) 0)))
 (let (($x665 (or (and $x3621 (and (distinct (mod x_plus_year 100) 0) true)) $x542)))
 (let (($x477 (= 2 x_plus_month)))
 (let ((?x960 (ite $x477 (ite $x665 31 31) (ite (= 1 x_plus_month) (ite $x665 0 0) 0))))
 (let (($x954 (= 3 x_plus_month)))
 (let (($x1070 (= 4 x_plus_month)))
 (let ((?x784 (ite $x1070 (ite $x665 91 90) (ite $x954 (ite $x665 60 59) ?x960))))
 (let (($x1146 (= 5 x_plus_month)))
 (let (($x583 (= 6 x_plus_month)))
 (let ((?x1075 (ite $x583 (ite $x665 152 151) (ite $x1146 (ite $x665 121 120) ?x784))))
 (let (($x1166 (= 7 x_plus_month)))
 (let (($x443 (= 8 x_plus_month)))
 (let ((?x1045 (ite $x443 (ite $x665 213 212) (ite $x1166 (ite $x665 182 181) ?x1075))))
 (let (($x575 (= 9 x_plus_month)))
 (let (($x1097 (= 10 x_plus_month)))
 (let ((?x1024 (ite $x1097 (ite $x665 274 273) (ite $x575 (ite $x665 244 243) ?x1045))))
 (let (($x959 (= 11 x_plus_month)))
 (let (($x446 (= 12 x_plus_month)))
 (let ((?x858 (ite $x446 (ite $x665 335 334) (ite $x959 (ite $x665 305 304) ?x1024))))
 (let ((?x776 (+ (* 365 (- x_plus_year 1)) (div (- x_plus_year 1) 4))))
 (let ((?x1133 (+ (- ?x776 (div (- x_plus_year 1) 100)) (div (- x_plus_year 1) 400))))
 (= x_plus_epoch (- (+ (+ ?x1133 ?x858) (- x_plus_day 1)) 730179)))))))))))))))))))))))))
(assert
 (let ((?x625 (+ x_epoch 730179)))
 (let ((?x408 (mod ?x625 146097)))
 (let ((?x764 (div ?x408 36524)))
 (let ((?x2770 (ite (<= 4 ?x764) 3 ?x764)))
 (let ((?x747 (- ?x408 (* ?x2770 36524))))
 (let ((?x553 (mod ?x747 1461)))
 (let ((?x1202 (div ?x553 365)))
 (let ((?x833 (ite (<= 4 ?x1202) 3 ?x1202)))
 (let ((?x440 (+ (+ (* (div ?x625 146097) 400) (* ?x2770 100)) (* (div ?x747 1461) 4))))
 (let ((?x1965 (+ (+ ?x440 ?x833) 1)))
 (let (($x2719 (or (and (= (mod ?x1965 4) 0) (and (distinct (mod ?x1965 100) 0) true)) (= (mod ?x1965 400) 0))))
 (let ((?x1603 (- ?x553 (* ?x833 365))))
 (let ((?x1200 (ite $x2719 31 31)))
 (let (($x951 (>= ?x1603 ?x1200)))
 (let ((?x1907 (ite $x951 (+ (- ?x1603 ?x1200) 1) (+ (- ?x1603 (ite $x2719 0 0)) 1))))
 (let ((?x1443 (ite $x2719 60 59)))
 (let (($x1168 (>= ?x1603 ?x1443)))
 (let ((?x3433 (ite $x2719 91 90)))
 (let (($x937 (>= ?x1603 ?x3433)))
 (let ((?x3745 (ite $x937 (+ (- ?x1603 ?x3433) 1) (ite $x1168 (+ (- ?x1603 ?x1443) 1) ?x1907))))
 (let ((?x831 (ite $x2719 121 120)))
 (let (($x3077 (>= ?x1603 ?x831)))
 (let ((?x836 (ite $x2719 152 151)))
 (let (($x431 (>= ?x1603 ?x836)))
 (let ((?x1421 (ite $x431 (+ (- ?x1603 ?x836) 1) (ite $x3077 (+ (- ?x1603 ?x831) 1) ?x3745))))
 (let ((?x935 (ite $x2719 182 181)))
 (let (($x1307 (>= ?x1603 ?x935)))
 (let ((?x432 (ite $x2719 213 212)))
 (let (($x3279 (>= ?x1603 ?x432)))
 (let ((?x2539 (ite $x3279 (+ (- ?x1603 ?x432) 1) (ite $x1307 (+ (- ?x1603 ?x935) 1) ?x1421))))
 (let ((?x941 (ite $x2719 244 243)))
 (let (($x1683 (>= ?x1603 ?x941)))
 (let ((?x470 (ite $x2719 274 273)))
 (let (($x695 (>= ?x1603 ?x470)))
 (let ((?x838 (ite $x695 (+ (- ?x1603 ?x470) 1) (ite $x1683 (+ (- ?x1603 ?x941) 1) ?x2539))))
 (let ((?x1235 (ite $x2719 305 304)))
 (let (($x3462 (>= ?x1603 ?x1235)))
 (let ((?x1238 (ite $x2719 335 334)))
 (let (($x2527 (>= ?x1603 ?x1238)))
 (let ((?x883 (ite $x2527 (+ (- ?x1603 ?x1238) 1) (ite $x3462 (+ (- ?x1603 ?x1235) 1) ?x838))))
 (let ((?x3024 (* 0 12)))
 (let ((?x3330 (+ ?x3024 13)))
 (let ((?x536 (ite $x3077 5 (ite $x937 4 (ite $x1168 3 (ite $x951 2 1))))))
 (let ((?x992 (ite $x1683 9 (ite $x3279 8 (ite $x1307 7 (ite $x431 6 ?x536))))))
 (let ((?x2924 (ite $x2527 12 (ite $x3462 11 (ite $x695 10 ?x992)))))
 (let ((?x1013 (+ ?x2924 ?x3330)))
 (let ((?x1810 (- ?x1013 1)))
 (let ((?x788 (+ (mod ?x1810 12) 1)))
 (let ((?x893 (ite (or (= ?x788 4) (= ?x788 6) (= ?x788 9) (= ?x788 11)) 30 31)))
 (let (($x2363 (and (= (mod (+ ?x1965 (+ 0 (div ?x1810 12))) 4) 0) (and (distinct (mod (+ ?x1965 (+ 0 (div ?x1810 12))) 100) 0) true))))
 (let (($x3523 (or $x2363 (= (mod (+ ?x1965 (+ 0 (div ?x1810 12))) 400) 0))))
 (let ((?x2060 (ite (= ?x788 2) (ite $x3523 29 28) ?x893)))
 (let (($x2761 (> 1 ?x883)))
 (let ((?x2174 (ite $x2761 1 (ite (> ?x883 ?x2060) ?x2060 ?x883))))
 (let ((?x1244 (ite (> 1 ?x2174) 1 (ite (> ?x2174 ?x2060) ?x2060 ?x2174))))
 (let ((?x3489 (ite (= 2 ?x788) (ite $x3523 31 31) (ite (= 1 ?x788) (ite $x3523 0 0) 0))))
 (let ((?x1723 (ite (= 4 ?x788) (ite $x3523 91 90) (ite (= 3 ?x788) (ite $x3523 60 59) ?x3489))))
 (let ((?x1335 (ite (= 6 ?x788) (ite $x3523 152 151) (ite (= 5 ?x788) (ite $x3523 121 120) ?x1723))))
 (let ((?x3835 (ite (= 8 ?x788) (ite $x3523 213 212) (ite (= 7 ?x788) (ite $x3523 182 181) ?x1335))))
 (let ((?x2646 (ite (= 10 ?x788) (ite $x3523 274 273) (ite (= 9 ?x788) (ite $x3523 244 243) ?x3835))))
 (let ((?x3574 (ite (= 12 ?x788) (ite $x3523 335 334) (ite (= 11 ?x788) (ite $x3523 305 304) ?x2646))))
 (let ((?x1281 (+ (* 365 (- (+ ?x1965 (+ 0 (div ?x1810 12))) 1)) (div (- (+ ?x1965 (+ 0 (div ?x1810 12))) 1) 4))))
 (let ((?x495 (+ (- ?x1281 (div (- (+ ?x1965 (+ 0 (div ?x1810 12))) 1) 100)) (div (- (+ ?x1965 (+ 0 (div ?x1810 12))) 1) 400))))
 (let ((?x1786 (+ (+ (- (+ (+ ?x495 ?x3574) (- ?x1244 1)) 730179) 40) 730179)))
 (let ((?x3327 (mod ?x1786 146097)))
 (let ((?x2672 (div ?x3327 36524)))
 (let ((?x2518 (ite (<= 4 ?x2672) 3 ?x2672)))
 (let ((?x2350 (- ?x3327 (* ?x2518 36524))))
 (let ((?x1820 (mod ?x2350 1461)))
 (let ((?x502 (div ?x1820 365)))
 (let ((?x2742 (ite (<= 4 ?x502) 3 ?x502)))
 (let ((?x1586 (+ (+ (* (div ?x1786 146097) 400) (* ?x2518 100)) (* (div ?x2350 1461) 4))))
 (let ((?x2244 (+ (+ ?x1586 ?x2742) 1)))
 (let ((?x812 (+ 0 (div ?x1810 12))))
 (let ((?x3331 (+ ?x1965 ?x812)))
 (let (($x1199 (= 40 0)))
 (let ((?x3697 (ite $x1199 ?x3331 ?x2244)))
 (= x_plus_year ?x3697)))))))))))))))))))))))))))))))))))))))))))))))))))))))))))))))))))))))))))))))
(assert
 (let ((?x625 (+ x_epoch 730179)))
 (let ((?x408 (mod ?x625 146097)))
 (let ((?x764 (div ?x408 36524)))
 (let ((?x2770 (ite (<= 4 ?x764) 3 ?x764)))
 (let ((?x747 (- ?x408 (* ?x2770 36524))))
 (let ((?x553 (mod ?x747 1461)))
 (let ((?x1202 (div ?x553 365)))
 (let ((?x833 (ite (<= 4 ?x1202) 3 ?x1202)))
 (let ((?x440 (+ (+ (* (div ?x625 146097) 400) (* ?x2770 100)) (* (div ?x747 1461) 4))))
 (let ((?x1965 (+ (+ ?x440 ?x833) 1)))
 (let (($x2719 (or (and (= (mod ?x1965 4) 0) (and (distinct (mod ?x1965 100) 0) true)) (= (mod ?x1965 400) 0))))
 (let ((?x1603 (- ?x553 (* ?x833 365))))
 (let ((?x1200 (ite $x2719 31 31)))
 (let (($x951 (>= ?x1603 ?x1200)))
 (let ((?x1907 (ite $x951 (+ (- ?x1603 ?x1200) 1) (+ (- ?x1603 (ite $x2719 0 0)) 1))))
 (let ((?x1443 (ite $x2719 60 59)))
 (let (($x1168 (>= ?x1603 ?x1443)))
 (let ((?x3433 (ite $x2719 91 90)))
 (let (($x937 (>= ?x1603 ?x3433)))
 (let ((?x3745 (ite $x937 (+ (- ?x1603 ?x3433) 1) (ite $x1168 (+ (- ?x1603 ?x1443) 1) ?x1907))))
 (let ((?x831 (ite $x2719 121 120)))
 (let (($x3077 (>= ?x1603 ?x831)))
 (let ((?x836 (ite $x2719 152 151)))
 (let (($x431 (>= ?x1603 ?x836)))
 (let ((?x1421 (ite $x431 (+ (- ?x1603 ?x836) 1) (ite $x3077 (+ (- ?x1603 ?x831) 1) ?x3745))))
 (let ((?x935 (ite $x2719 182 181)))
 (let (($x1307 (>= ?x1603 ?x935)))
 (let ((?x432 (ite $x2719 213 212)))
 (let (($x3279 (>= ?x1603 ?x432)))
 (let ((?x2539 (ite $x3279 (+ (- ?x1603 ?x432) 1) (ite $x1307 (+ (- ?x1603 ?x935) 1) ?x1421))))
 (let ((?x941 (ite $x2719 244 243)))
 (let (($x1683 (>= ?x1603 ?x941)))
 (let ((?x470 (ite $x2719 274 273)))
 (let (($x695 (>= ?x1603 ?x470)))
 (let ((?x838 (ite $x695 (+ (- ?x1603 ?x470) 1) (ite $x1683 (+ (- ?x1603 ?x941) 1) ?x2539))))
 (let ((?x1235 (ite $x2719 305 304)))
 (let (($x3462 (>= ?x1603 ?x1235)))
 (let ((?x1238 (ite $x2719 335 334)))
 (let (($x2527 (>= ?x1603 ?x1238)))
 (let ((?x883 (ite $x2527 (+ (- ?x1603 ?x1238) 1) (ite $x3462 (+ (- ?x1603 ?x1235) 1) ?x838))))
 (let ((?x3024 (* 0 12)))
 (let ((?x3330 (+ ?x3024 13)))
 (let ((?x536 (ite $x3077 5 (ite $x937 4 (ite $x1168 3 (ite $x951 2 1))))))
 (let ((?x992 (ite $x1683 9 (ite $x3279 8 (ite $x1307 7 (ite $x431 6 ?x536))))))
 (let ((?x2924 (ite $x2527 12 (ite $x3462 11 (ite $x695 10 ?x992)))))
 (let ((?x1013 (+ ?x2924 ?x3330)))
 (let ((?x1810 (- ?x1013 1)))
 (let ((?x788 (+ (mod ?x1810 12) 1)))
 (let ((?x893 (ite (or (= ?x788 4) (= ?x788 6) (= ?x788 9) (= ?x788 11)) 30 31)))
 (let (($x2363 (and (= (mod (+ ?x1965 (+ 0 (div ?x1810 12))) 4) 0) (and (distinct (mod (+ ?x1965 (+ 0 (div ?x1810 12))) 100) 0) true))))
 (let (($x3523 (or $x2363 (= (mod (+ ?x1965 (+ 0 (div ?x1810 12))) 400) 0))))
 (let ((?x2060 (ite (= ?x788 2) (ite $x3523 29 28) ?x893)))
 (let (($x2761 (> 1 ?x883)))
 (let ((?x2174 (ite $x2761 1 (ite (> ?x883 ?x2060) ?x2060 ?x883))))
 (let ((?x1244 (ite (> 1 ?x2174) 1 (ite (> ?x2174 ?x2060) ?x2060 ?x2174))))
 (let ((?x3489 (ite (= 2 ?x788) (ite $x3523 31 31) (ite (= 1 ?x788) (ite $x3523 0 0) 0))))
 (let ((?x1723 (ite (= 4 ?x788) (ite $x3523 91 90) (ite (= 3 ?x788) (ite $x3523 60 59) ?x3489))))
 (let ((?x1335 (ite (= 6 ?x788) (ite $x3523 152 151) (ite (= 5 ?x788) (ite $x3523 121 120) ?x1723))))
 (let ((?x3835 (ite (= 8 ?x788) (ite $x3523 213 212) (ite (= 7 ?x788) (ite $x3523 182 181) ?x1335))))
 (let ((?x2646 (ite (= 10 ?x788) (ite $x3523 274 273) (ite (= 9 ?x788) (ite $x3523 244 243) ?x3835))))
 (let ((?x3574 (ite (= 12 ?x788) (ite $x3523 335 334) (ite (= 11 ?x788) (ite $x3523 305 304) ?x2646))))
 (let ((?x1281 (+ (* 365 (- (+ ?x1965 (+ 0 (div ?x1810 12))) 1)) (div (- (+ ?x1965 (+ 0 (div ?x1810 12))) 1) 4))))
 (let ((?x495 (+ (- ?x1281 (div (- (+ ?x1965 (+ 0 (div ?x1810 12))) 1) 100)) (div (- (+ ?x1965 (+ 0 (div ?x1810 12))) 1) 400))))
 (let ((?x1786 (+ (+ (- (+ (+ ?x495 ?x3574) (- ?x1244 1)) 730179) 40) 730179)))
 (let ((?x3327 (mod ?x1786 146097)))
 (let ((?x2672 (div ?x3327 36524)))
 (let ((?x2518 (ite (<= 4 ?x2672) 3 ?x2672)))
 (let ((?x2350 (- ?x3327 (* ?x2518 36524))))
 (let ((?x1820 (mod ?x2350 1461)))
 (let ((?x502 (div ?x1820 365)))
 (let ((?x2742 (ite (<= 4 ?x502) 3 ?x502)))
 (let ((?x1586 (+ (+ (* (div ?x1786 146097) 400) (* ?x2518 100)) (* (div ?x2350 1461) 4))))
 (let ((?x2244 (+ (+ ?x1586 ?x2742) 1)))
 (let (($x1183 (or (and (= (mod ?x2244 4) 0) (and (distinct (mod ?x2244 100) 0) true)) (= (mod ?x2244 400) 0))))
 (let ((?x1844 (ite $x1183 31 31)))
 (let ((?x2410 (- ?x1820 (* ?x2742 365))))
 (let (($x4287 (>= ?x2410 ?x1844)))
 (let ((?x2670 (ite $x1183 60 59)))
 (let (($x3592 (>= ?x2410 ?x2670)))
 (let ((?x2682 (ite $x1183 91 90)))
 (let (($x4250 (>= ?x2410 ?x2682)))
 (let ((?x3655 (ite $x1183 121 120)))
 (let (($x4274 (>= ?x2410 ?x3655)))
 (let ((?x1649 (ite $x4274 5 (ite $x4250 4 (ite $x3592 3 (ite $x4287 2 1))))))
 (let ((?x2446 (ite $x1183 152 151)))
 (let (($x4273 (>= ?x2410 ?x2446)))
 (let ((?x4280 (ite $x1183 182 181)))
 (let (($x2886 (>= ?x2410 ?x4280)))
 (let ((?x4283 (ite $x1183 213 212)))
 (let (($x550 (>= ?x2410 ?x4283)))
 (let ((?x4281 (ite $x1183 244 243)))
 (let (($x4245 (>= ?x2410 ?x4281)))
 (let ((?x4261 (ite $x4245 9 (ite $x550 8 (ite $x2886 7 (ite $x4273 6 ?x1649))))))
 (let ((?x4284 (ite $x1183 274 273)))
 (let (($x4263 (>= ?x2410 ?x4284)))
 (let ((?x4285 (ite $x1183 305 304)))
 (let (($x4262 (>= ?x2410 ?x4285)))
 (let ((?x4286 (ite $x1183 335 334)))
 (let (($x4243 (>= ?x2410 ?x4286)))
 (let ((?x4251 (ite $x4243 12 (ite $x4262 11 (ite $x4263 10 ?x4261)))))
 (let (($x1199 (= 40 0)))
 (let ((?x4190 (ite $x1199 ?x788 ?x4251)))
 (= x_plus_month ?x4190))))))))))))))))))))))))))))))))))))))))))))))))))))))))))))))))))))))))))))))))))))))))))))))))))))))))
(assert
 (let ((?x625 (+ x_epoch 730179)))
 (let ((?x408 (mod ?x625 146097)))
 (let ((?x764 (div ?x408 36524)))
 (let ((?x2770 (ite (<= 4 ?x764) 3 ?x764)))
 (let ((?x747 (- ?x408 (* ?x2770 36524))))
 (let ((?x553 (mod ?x747 1461)))
 (let ((?x1202 (div ?x553 365)))
 (let ((?x833 (ite (<= 4 ?x1202) 3 ?x1202)))
 (let ((?x440 (+ (+ (* (div ?x625 146097) 400) (* ?x2770 100)) (* (div ?x747 1461) 4))))
 (let ((?x1965 (+ (+ ?x440 ?x833) 1)))
 (let (($x2719 (or (and (= (mod ?x1965 4) 0) (and (distinct (mod ?x1965 100) 0) true)) (= (mod ?x1965 400) 0))))
 (let ((?x1603 (- ?x553 (* ?x833 365))))
 (let ((?x1200 (ite $x2719 31 31)))
 (let (($x951 (>= ?x1603 ?x1200)))
 (let ((?x1907 (ite $x951 (+ (- ?x1603 ?x1200) 1) (+ (- ?x1603 (ite $x2719 0 0)) 1))))
 (let ((?x1443 (ite $x2719 60 59)))
 (let (($x1168 (>= ?x1603 ?x1443)))
 (let ((?x3433 (ite $x2719 91 90)))
 (let (($x937 (>= ?x1603 ?x3433)))
 (let ((?x3745 (ite $x937 (+ (- ?x1603 ?x3433) 1) (ite $x1168 (+ (- ?x1603 ?x1443) 1) ?x1907))))
 (let ((?x831 (ite $x2719 121 120)))
 (let (($x3077 (>= ?x1603 ?x831)))
 (let ((?x836 (ite $x2719 152 151)))
 (let (($x431 (>= ?x1603 ?x836)))
 (let ((?x1421 (ite $x431 (+ (- ?x1603 ?x836) 1) (ite $x3077 (+ (- ?x1603 ?x831) 1) ?x3745))))
 (let ((?x935 (ite $x2719 182 181)))
 (let (($x1307 (>= ?x1603 ?x935)))
 (let ((?x432 (ite $x2719 213 212)))
 (let (($x3279 (>= ?x1603 ?x432)))
 (let ((?x2539 (ite $x3279 (+ (- ?x1603 ?x432) 1) (ite $x1307 (+ (- ?x1603 ?x935) 1) ?x1421))))
 (let ((?x941 (ite $x2719 244 243)))
 (let (($x1683 (>= ?x1603 ?x941)))
 (let ((?x470 (ite $x2719 274 273)))
 (let (($x695 (>= ?x1603 ?x470)))
 (let ((?x838 (ite $x695 (+ (- ?x1603 ?x470) 1) (ite $x1683 (+ (- ?x1603 ?x941) 1) ?x2539))))
 (let ((?x1235 (ite $x2719 305 304)))
 (let (($x3462 (>= ?x1603 ?x1235)))
 (let ((?x1238 (ite $x2719 335 334)))
 (let (($x2527 (>= ?x1603 ?x1238)))
 (let ((?x883 (ite $x2527 (+ (- ?x1603 ?x1238) 1) (ite $x3462 (+ (- ?x1603 ?x1235) 1) ?x838))))
 (let ((?x3024 (* 0 12)))
 (let ((?x3330 (+ ?x3024 13)))
 (let ((?x536 (ite $x3077 5 (ite $x937 4 (ite $x1168 3 (ite $x951 2 1))))))
 (let ((?x992 (ite $x1683 9 (ite $x3279 8 (ite $x1307 7 (ite $x431 6 ?x536))))))
 (let ((?x2924 (ite $x2527 12 (ite $x3462 11 (ite $x695 10 ?x992)))))
 (let ((?x1013 (+ ?x2924 ?x3330)))
 (let ((?x1810 (- ?x1013 1)))
 (let ((?x788 (+ (mod ?x1810 12) 1)))
 (let ((?x893 (ite (or (= ?x788 4) (= ?x788 6) (= ?x788 9) (= ?x788 11)) 30 31)))
 (let (($x2363 (and (= (mod (+ ?x1965 (+ 0 (div ?x1810 12))) 4) 0) (and (distinct (mod (+ ?x1965 (+ 0 (div ?x1810 12))) 100) 0) true))))
 (let (($x3523 (or $x2363 (= (mod (+ ?x1965 (+ 0 (div ?x1810 12))) 400) 0))))
 (let ((?x2060 (ite (= ?x788 2) (ite $x3523 29 28) ?x893)))
 (let (($x2761 (> 1 ?x883)))
 (let ((?x2174 (ite $x2761 1 (ite (> ?x883 ?x2060) ?x2060 ?x883))))
 (let ((?x1244 (ite (> 1 ?x2174) 1 (ite (> ?x2174 ?x2060) ?x2060 ?x2174))))
 (let ((?x3489 (ite (= 2 ?x788) (ite $x3523 31 31) (ite (= 1 ?x788) (ite $x3523 0 0) 0))))
 (let ((?x1723 (ite (= 4 ?x788) (ite $x3523 91 90) (ite (= 3 ?x788) (ite $x3523 60 59) ?x3489))))
 (let ((?x1335 (ite (= 6 ?x788) (ite $x3523 152 151) (ite (= 5 ?x788) (ite $x3523 121 120) ?x1723))))
 (let ((?x3835 (ite (= 8 ?x788) (ite $x3523 213 212) (ite (= 7 ?x788) (ite $x3523 182 181) ?x1335))))
 (let ((?x2646 (ite (= 10 ?x788) (ite $x3523 274 273) (ite (= 9 ?x788) (ite $x3523 244 243) ?x3835))))
 (let ((?x3574 (ite (= 12 ?x788) (ite $x3523 335 334) (ite (= 11 ?x788) (ite $x3523 305 304) ?x2646))))
 (let ((?x1281 (+ (* 365 (- (+ ?x1965 (+ 0 (div ?x1810 12))) 1)) (div (- (+ ?x1965 (+ 0 (div ?x1810 12))) 1) 4))))
 (let ((?x495 (+ (- ?x1281 (div (- (+ ?x1965 (+ 0 (div ?x1810 12))) 1) 100)) (div (- (+ ?x1965 (+ 0 (div ?x1810 12))) 1) 400))))
 (let ((?x1786 (+ (+ (- (+ (+ ?x495 ?x3574) (- ?x1244 1)) 730179) 40) 730179)))
 (let ((?x3327 (mod ?x1786 146097)))
 (let ((?x2672 (div ?x3327 36524)))
 (let ((?x2518 (ite (<= 4 ?x2672) 3 ?x2672)))
 (let ((?x2350 (- ?x3327 (* ?x2518 36524))))
 (let ((?x1820 (mod ?x2350 1461)))
 (let ((?x502 (div ?x1820 365)))
 (let ((?x2742 (ite (<= 4 ?x502) 3 ?x502)))
 (let ((?x1586 (+ (+ (* (div ?x1786 146097) 400) (* ?x2518 100)) (* (div ?x2350 1461) 4))))
 (let ((?x2244 (+ (+ ?x1586 ?x2742) 1)))
 (let (($x1183 (or (and (= (mod ?x2244 4) 0) (and (distinct (mod ?x2244 100) 0) true)) (= (mod ?x2244 400) 0))))
 (let ((?x2410 (- ?x1820 (* ?x2742 365))))
 (let ((?x1844 (ite $x1183 31 31)))
 (let (($x4287 (>= ?x2410 ?x1844)))
 (let ((?x4236 (ite $x4287 (+ (- ?x2410 ?x1844) 1) (+ (- ?x2410 (ite $x1183 0 0)) 1))))
 (let ((?x2670 (ite $x1183 60 59)))
 (let (($x3592 (>= ?x2410 ?x2670)))
 (let ((?x2682 (ite $x1183 91 90)))
 (let (($x4250 (>= ?x2410 ?x2682)))
 (let ((?x4228 (ite $x4250 (+ (- ?x2410 ?x2682) 1) (ite $x3592 (+ (- ?x2410 ?x2670) 1) ?x4236))))
 (let ((?x3655 (ite $x1183 121 120)))
 (let (($x4274 (>= ?x2410 ?x3655)))
 (let ((?x2446 (ite $x1183 152 151)))
 (let (($x4273 (>= ?x2410 ?x2446)))
 (let ((?x4216 (ite $x4273 (+ (- ?x2410 ?x2446) 1) (ite $x4274 (+ (- ?x2410 ?x3655) 1) ?x4228))))
 (let ((?x4280 (ite $x1183 182 181)))
 (let (($x2886 (>= ?x2410 ?x4280)))
 (let ((?x4283 (ite $x1183 213 212)))
 (let (($x550 (>= ?x2410 ?x4283)))
 (let ((?x3363 (ite $x550 (+ (- ?x2410 ?x4283) 1) (ite $x2886 (+ (- ?x2410 ?x4280) 1) ?x4216))))
 (let ((?x4281 (ite $x1183 244 243)))
 (let (($x4245 (>= ?x2410 ?x4281)))
 (let ((?x4284 (ite $x1183 274 273)))
 (let (($x4263 (>= ?x2410 ?x4284)))
 (let ((?x1383 (ite $x4263 (+ (- ?x2410 ?x4284) 1) (ite $x4245 (+ (- ?x2410 ?x4281) 1) ?x3363))))
 (let ((?x4285 (ite $x1183 305 304)))
 (let (($x4262 (>= ?x2410 ?x4285)))
 (let ((?x4286 (ite $x1183 335 334)))
 (let (($x4243 (>= ?x2410 ?x4286)))
 (let ((?x2122 (ite $x4243 (+ (- ?x2410 ?x4286) 1) (ite $x4262 (+ (- ?x2410 ?x4285) 1) ?x1383))))
 (let (($x1199 (= 40 0)))
 (let ((?x4191 (ite $x1199 ?x1244 ?x2122)))
 (= x_plus_day ?x4191)))))))))))))))))))))))))))))))))))))))))))))))))))))))))))))))))))))))))))))))))))))))))))))))))))))))))))
(assert
 (= y_epoch x_plus_epoch))
(assert
 (not (= y_epoch 8395)))
(check-sat)
